NAME : 0
COMMENT : CVRP Instance
TYPE : CVRP
DIMENSION : 670
EDGE_WEIGHT_TYPE : EUC_2D
CAPACITY : 129
NODE_COORD_SECTION
1	612.0	199.0
2	864.0	279.0
3	746.0	395.0
4	738.0	519.0
5	684.0	851.0
6	806.0	263.0
7	867.0	314.0
8	637.0	357.0
9	64.0	531.0
10	803.0	657.0
11	22.0	330.0
12	634.0	731.0
13	351.0	945.0
14	240.0	812.0
15	664.0	595.0
16	775.0	1000.0
17	971.0	313.0
18	953.0	717.0
19	317.0	25.0
20	812.0	410.0
21	677.0	874.0
22	731.0	504.0
23	89.0	803.0
24	697.0	604.0
25	53.0	379.0
26	817.0	947.0
27	164.0	875.0
28	86.0	108.0
29	9.0	596.0
30	406.0	956.0
31	304.0	456.0
32	843.0	846.0
33	285.0	809.0
34	148.0	84.0
35	349.0	524.0
36	527.0	626.0
37	947.0	317.0
38	646.0	27.0
39	718.0	325.0
40	906.0	651.0
41	889.0	936.0
42	953.0	118.0
43	908.0	868.0
44	447.0	13.0
45	335.0	495.0
46	77.0	834.0
47	992.0	428.0
48	826.0	196.0
49	337.0	341.0
50	482.0	288.0
51	123.0	49.0
52	415.0	572.0
53	274.0	837.0
54	581.0	738.0
55	33.0	36.0
56	795.0	906.0
57	353.0	858.0
58	242.0	80.0
59	532.0	464.0
60	246.0	853.0
61	109.0	299.0
62	285.0	353.0
63	5.0	669.0
64	255.0	457.0
65	909.0	568.0
66	986.0	234.0
67	920.0	756.0
68	7.0	655.0
69	441.0	88.0
70	569.0	543.0
71	317.0	94.0
72	897.0	775.0
73	226.0	802.0
74	716.0	738.0
75	320.0	820.0
76	15.0	31.0
77	114.0	664.0
78	60.0	419.0
79	629.0	333.0
80	662.0	34.0
81	780.0	143.0
82	689.0	829.0
83	19.0	801.0
84	836.0	281.0
85	227.0	730.0
86	640.0	347.0
87	850.0	655.0
88	742.0	663.0
89	290.0	424.0
90	407.0	997.0
91	553.0	92.0
92	286.0	957.0
93	129.0	245.0
94	435.0	940.0
95	141.0	578.0
96	578.0	334.0
97	732.0	726.0
98	624.0	979.0
99	705.0	340.0
100	431.0	858.0
101	416.0	416.0
102	826.0	58.0
103	913.0	873.0
104	862.0	977.0
105	326.0	380.0
106	344.0	764.0
107	512.0	437.0
108	589.0	34.0
109	937.0	700.0
110	439.0	819.0
111	826.0	559.0
112	535.0	764.0
113	547.0	971.0
114	822.0	590.0
115	257.0	530.0
116	324.0	789.0
117	788.0	804.0
118	156.0	583.0
119	788.0	907.0
120	788.0	123.0
121	115.0	327.0
122	561.0	946.0
123	477.0	11.0
124	455.0	671.0
125	317.0	685.0
126	105.0	965.0
127	962.0	433.0
128	62.0	729.0
129	5.0	534.0
130	314.0	568.0
131	957.0	527.0
132	47.0	482.0
133	123.0	549.0
134	665.0	826.0
135	756.0	911.0
136	50.0	508.0
137	439.0	921.0
138	86.0	447.0
139	731.0	971.0
140	417.0	273.0
141	52.0	855.0
142	463.0	281.0
143	832.0	357.0
144	693.0	636.0
145	890.0	71.0
146	131.0	820.0
147	85.0	486.0
148	130.0	344.0
149	204.0	308.0
150	381.0	694.0
151	98.0	41.0
152	182.0	538.0
153	78.0	818.0
154	954.0	175.0
155	555.0	470.0
156	4.0	246.0
157	925.0	867.0
158	546.0	678.0
159	717.0	485.0
160	958.0	891.0
161	980.0	240.0
162	306.0	252.0
163	925.0	566.0
164	105.0	781.0
165	812.0	738.0
166	337.0	94.0
167	96.0	457.0
168	713.0	619.0
169	815.0	673.0
170	193.0	37.0
171	229.0	668.0
172	750.0	998.0
173	713.0	377.0
174	383.0	57.0
175	898.0	976.0
176	388.0	899.0
177	57.0	697.0
178	869.0	771.0
179	755.0	921.0
180	504.0	197.0
181	727.0	494.0
182	564.0	932.0
183	30.0	311.0
184	175.0	156.0
185	429.0	144.0
186	836.0	939.0
187	35.0	719.0
188	183.0	932.0
189	200.0	42.0
190	6.0	329.0
191	656.0	984.0
192	515.0	67.0
193	904.0	97.0
194	850.0	281.0
195	858.0	708.0
196	856.0	1.0
197	732.0	232.0
198	92.0	113.0
199	183.0	762.0
200	99.0	558.0
201	703.0	888.0
202	914.0	786.0
203	255.0	781.0
204	838.0	456.0
205	167.0	519.0
206	448.0	397.0
207	273.0	665.0
208	869.0	804.0
209	300.0	97.0
210	282.0	690.0
211	514.0	82.0
212	694.0	598.0
213	606.0	610.0
214	955.0	545.0
215	835.0	965.0
216	16.0	229.0
217	418.0	558.0
218	458.0	484.0
219	169.0	8.0
220	242.0	978.0
221	395.0	462.0
222	739.0	169.0
223	29.0	177.0
224	983.0	512.0
225	28.0	353.0
226	195.0	905.0
227	6.0	201.0
228	549.0	395.0
229	132.0	282.0
230	180.0	133.0
231	267.0	75.0
232	459.0	577.0
233	354.0	814.0
234	499.0	941.0
235	59.0	558.0
236	931.0	901.0
237	666.0	528.0
238	909.0	551.0
239	208.0	677.0
240	386.0	600.0
241	869.0	521.0
242	622.0	830.0
243	615.0	221.0
244	953.0	797.0
245	92.0	906.0
246	803.0	785.0
247	762.0	251.0
248	957.0	6.0
249	294.0	309.0
250	68.0	61.0
251	207.0	587.0
252	431.0	633.0
253	760.0	373.0
254	991.0	448.0
255	88.0	318.0
256	612.0	473.0
257	603.0	258.0
258	593.0	372.0
259	621.0	298.0
260	434.0	211.0
261	265.0	137.0
262	852.0	404.0
263	599.0	648.0
264	41.0	925.0
265	17.0	702.0
266	198.0	753.0
267	893.0	251.0
268	278.0	581.0
269	458.0	655.0
270	15.0	767.0
271	953.0	259.0
272	189.0	538.0
273	11.0	220.0
274	139.0	439.0
275	306.0	589.0
276	528.0	43.0
277	434.0	633.0
278	359.0	900.0
279	60.0	422.0
280	245.0	738.0
281	307.0	647.0
282	919.0	921.0
283	398.0	706.0
284	0.0	149.0
285	542.0	28.0
286	13.0	415.0
287	81.0	655.0
288	652.0	200.0
289	878.0	63.0
290	292.0	936.0
291	952.0	248.0
292	763.0	701.0
293	380.0	49.0
294	356.0	176.0
295	427.0	729.0
296	98.0	852.0
297	945.0	802.0
298	262.0	472.0
299	3.0	108.0
300	130.0	746.0
301	794.0	150.0
302	16.0	297.0
303	757.0	663.0
304	529.0	867.0
305	981.0	443.0
306	82.0	768.0
307	839.0	433.0
308	670.0	588.0
309	883.0	41.0
310	874.0	141.0
311	981.0	726.0
312	133.0	673.0
313	709.0	822.0
314	258.0	312.0
315	993.0	615.0
316	199.0	777.0
317	995.0	677.0
318	56.0	320.0
319	259.0	438.0
320	353.0	945.0
321	102.0	17.0
322	543.0	844.0
323	248.0	300.0
324	783.0	112.0
325	726.0	266.0
326	944.0	700.0
327	2.0	569.0
328	880.0	608.0
329	383.0	363.0
330	940.0	348.0
331	644.0	381.0
332	738.0	647.0
333	925.0	264.0
334	164.0	391.0
335	871.0	137.0
336	655.0	838.0
337	24.0	441.0
338	703.0	67.0
339	462.0	4.0
340	630.0	680.0
341	688.0	380.0
342	597.0	758.0
343	774.0	414.0
344	869.0	62.0
345	748.0	82.0
346	337.0	487.0
347	239.0	564.0
348	277.0	764.0
349	365.0	569.0
350	370.0	415.0
351	872.0	918.0
352	966.0	955.0
353	527.0	371.0
354	595.0	345.0
355	761.0	704.0
356	745.0	698.0
357	552.0	38.0
358	864.0	223.0
359	575.0	418.0
360	634.0	443.0
361	585.0	637.0
362	482.0	633.0
363	61.0	319.0
364	350.0	533.0
365	98.0	246.0
366	707.0	298.0
367	544.0	935.0
368	816.0	701.0
369	393.0	463.0
370	250.0	586.0
371	426.0	554.0
372	658.0	570.0
373	99.0	899.0
374	778.0	1.0
375	689.0	736.0
376	704.0	155.0
377	675.0	682.0
378	405.0	693.0
379	390.0	804.0
380	486.0	361.0
381	905.0	954.0
382	204.0	948.0
383	168.0	343.0
384	739.0	482.0
385	403.0	374.0
386	700.0	693.0
387	739.0	711.0
388	900.0	705.0
389	111.0	617.0
390	367.0	999.0
391	395.0	526.0
392	611.0	607.0
393	800.0	873.0
394	138.0	574.0
395	508.0	172.0
396	217.0	654.0
397	566.0	346.0
398	895.0	268.0
399	26.0	302.0
400	264.0	705.0
401	337.0	760.0
402	975.0	574.0
403	981.0	331.0
404	2.0	508.0
405	368.0	849.0
406	666.0	120.0
407	976.0	942.0
408	888.0	203.0
409	740.0	867.0
410	712.0	181.0
411	695.0	582.0
412	74.0	819.0
413	864.0	81.0
414	810.0	168.0
415	400.0	966.0
416	924.0	776.0
417	979.0	276.0
418	105.0	134.0
419	433.0	571.0
420	497.0	386.0
421	651.0	251.0
422	704.0	274.0
423	712.0	142.0
424	62.0	350.0
425	276.0	320.0
426	158.0	422.0
427	232.0	190.0
428	589.0	261.0
429	578.0	815.0
430	979.0	553.0
431	569.0	491.0
432	247.0	101.0
433	106.0	580.0
434	125.0	281.0
435	376.0	586.0
436	915.0	744.0
437	742.0	479.0
438	513.0	366.0
439	885.0	281.0
440	669.0	455.0
441	191.0	889.0
442	509.0	202.0
443	402.0	151.0
444	292.0	387.0
445	491.0	202.0
446	434.0	328.0
447	816.0	33.0
448	769.0	86.0
449	504.0	328.0
450	63.0	922.0
451	92.0	533.0
452	787.0	990.0
453	422.0	190.0
454	123.0	301.0
455	775.0	517.0
456	238.0	923.0
457	266.0	229.0
458	794.0	427.0
459	485.0	623.0
460	716.0	603.0
461	384.0	901.0
462	208.0	400.0
463	421.0	751.0
464	17.0	138.0
465	952.0	175.0
466	953.0	960.0
467	863.0	568.0
468	645.0	528.0
469	473.0	40.0
470	567.0	988.0
471	665.0	5.0
472	300.0	160.0
473	281.0	999.0
474	44.0	4.0
475	763.0	761.0
476	390.0	315.0
477	37.0	567.0
478	330.0	676.0
479	667.0	799.0
480	526.0	664.0
481	230.0	780.0
482	824.0	302.0
483	969.0	848.0
484	19.0	766.0
485	675.0	686.0
486	876.0	329.0
487	836.0	902.0
488	386.0	574.0
489	18.0	851.0
490	292.0	841.0
491	516.0	721.0
492	848.0	931.0
493	233.0	856.0
494	833.0	61.0
495	833.0	332.0
496	824.0	67.0
497	121.0	796.0
498	707.0	857.0
499	690.0	527.0
500	442.0	109.0
501	811.0	783.0
502	79.0	234.0
503	568.0	362.0
504	29.0	570.0
505	259.0	444.0
506	570.0	840.0
507	26.0	660.0
508	618.0	855.0
509	753.0	424.0
510	747.0	462.0
511	202.0	510.0
512	444.0	757.0
513	406.0	880.0
514	635.0	529.0
515	310.0	765.0
516	444.0	966.0
517	660.0	987.0
518	211.0	608.0
519	143.0	544.0
520	759.0	555.0
521	784.0	434.0
522	906.0	911.0
523	575.0	734.0
524	234.0	493.0
525	377.0	928.0
526	102.0	786.0
527	54.0	485.0
528	917.0	138.0
529	866.0	690.0
530	638.0	224.0
531	108.0	715.0
532	556.0	739.0
533	4.0	955.0
534	300.0	357.0
535	844.0	603.0
536	107.0	934.0
537	374.0	477.0
538	334.0	958.0
539	444.0	99.0
540	226.0	253.0
541	888.0	24.0
542	934.0	938.0
543	672.0	417.0
544	773.0	618.0
545	282.0	880.0
546	748.0	850.0
547	367.0	534.0
548	310.0	838.0
549	625.0	343.0
550	379.0	388.0
551	949.0	696.0
552	605.0	114.0
553	812.0	229.0
554	884.0	888.0
555	914.0	913.0
556	125.0	541.0
557	65.0	369.0
558	268.0	824.0
559	335.0	460.0
560	545.0	601.0
561	436.0	107.0
562	996.0	311.0
563	367.0	379.0
564	238.0	666.0
565	304.0	808.0
566	479.0	607.0
567	741.0	978.0
568	784.0	502.0
569	878.0	347.0
570	587.0	607.0
571	264.0	329.0
572	464.0	763.0
573	691.0	618.0
574	140.0	350.0
575	326.0	770.0
576	763.0	494.0
577	108.0	29.0
578	413.0	515.0
579	390.0	406.0
580	870.0	632.0
581	823.0	5.0
582	631.0	919.0
583	501.0	606.0
584	174.0	503.0
585	352.0	487.0
586	476.0	22.0
587	780.0	505.0
588	772.0	324.0
589	547.0	428.0
590	580.0	425.0
591	926.0	505.0
592	960.0	705.0
593	81.0	301.0
594	30.0	367.0
595	717.0	772.0
596	737.0	141.0
597	962.0	592.0
598	866.0	231.0
599	510.0	737.0
600	309.0	524.0
601	18.0	304.0
602	580.0	38.0
603	739.0	598.0
604	581.0	633.0
605	413.0	455.0
606	618.0	953.0
607	415.0	820.0
608	665.0	638.0
609	135.0	578.0
610	880.0	775.0
611	629.0	631.0
612	371.0	600.0
613	501.0	223.0
614	215.0	451.0
615	49.0	525.0
616	718.0	972.0
617	656.0	456.0
618	932.0	564.0
619	424.0	764.0
620	423.0	93.0
621	72.0	355.0
622	286.0	840.0
623	75.0	872.0
624	410.0	700.0
625	51.0	518.0
626	992.0	644.0
627	407.0	141.0
628	303.0	414.0
629	224.0	557.0
630	711.0	483.0
631	401.0	128.0
632	933.0	250.0
633	46.0	598.0
634	562.0	503.0
635	115.0	157.0
636	829.0	113.0
637	304.0	785.0
638	617.0	993.0
639	188.0	816.0
640	727.0	298.0
641	612.0	777.0
642	398.0	880.0
643	334.0	458.0
644	65.0	991.0
645	912.0	247.0
646	383.0	233.0
647	846.0	703.0
648	485.0	768.0
649	972.0	386.0
650	502.0	763.0
651	96.0	937.0
652	329.0	97.0
653	892.0	400.0
654	639.0	318.0
655	34.0	810.0
656	147.0	837.0
657	598.0	9.0
658	129.0	390.0
659	689.0	739.0
660	187.0	735.0
661	344.0	952.0
662	263.0	610.0
663	665.0	405.0
664	906.0	931.0
665	212.0	478.0
666	784.0	249.0
667	647.0	257.0
668	456.0	454.0
669	615.0	858.0
670	385.0	722.0
DEMAND_SECTION
1	0
2	50
3	86
4	94
5	54
6	57
7	52
8	66
9	76
10	69
11	57
12	77
13	94
14	64
15	79
16	91
17	55
18	79
19	68
20	51
21	93
22	91
23	68
24	51
25	93
26	91
27	91
28	59
29	76
30	57
31	96
32	97
33	69
34	83
35	58
36	56
37	81
38	96
39	52
40	86
41	78
42	92
43	67
44	56
45	56
46	51
47	91
48	93
49	73
50	70
51	77
52	91
53	64
54	81
55	76
56	51
57	75
58	81
59	57
60	50
61	80
62	53
63	86
64	61
65	62
66	100
67	94
68	89
69	88
70	52
71	60
72	83
73	79
74	64
75	82
76	72
77	90
78	72
79	51
80	88
81	82
82	78
83	80
84	82
85	98
86	70
87	74
88	61
89	88
90	51
91	60
92	57
93	84
94	65
95	57
96	51
97	77
98	63
99	55
100	53
101	88
102	90
103	89
104	70
105	94
106	50
107	62
108	87
109	56
110	89
111	73
112	88
113	94
114	63
115	90
116	86
117	53
118	70
119	75
120	92
121	94
122	67
123	59
124	94
125	52
126	52
127	71
128	79
129	76
130	87
131	54
132	63
133	92
134	69
135	51
136	60
137	83
138	61
139	72
140	61
141	68
142	64
143	70
144	57
145	71
146	91
147	70
148	67
149	96
150	95
151	91
152	57
153	56
154	90
155	70
156	72
157	99
158	80
159	91
160	56
161	72
162	83
163	55
164	80
165	62
166	53
167	60
168	65
169	60
170	60
171	73
172	58
173	88
174	59
175	53
176	57
177	76
178	72
179	82
180	86
181	87
182	55
183	83
184	68
185	89
186	81
187	52
188	54
189	83
190	2
191	6
192	10
193	6
194	3
195	4
196	4
197	3
198	2
199	6
200	10
201	8
202	2
203	6
204	9
205	6
206	8
207	8
208	1
209	5
210	4
211	8
212	2
213	8
214	3
215	4
216	8
217	1
218	1
219	5
220	1
221	4
222	1
223	10
224	2
225	2
226	9
227	2
228	8
229	2
230	8
231	4
232	5
233	6
234	5
235	10
236	5
237	1
238	3
239	7
240	1
241	5
242	9
243	1
244	9
245	3
246	8
247	1
248	7
249	2
250	5
251	8
252	7
253	4
254	5
255	2
256	2
257	4
258	7
259	8
260	1
261	1
262	3
263	8
264	10
265	9
266	3
267	1
268	4
269	4
270	10
271	10
272	4
273	8
274	3
275	7
276	1
277	5
278	7
279	1
280	2
281	5
282	10
283	3
284	1
285	10
286	8
287	5
288	3
289	6
290	9
291	4
292	5
293	4
294	9
295	2
296	8
297	9
298	8
299	9
300	7
301	9
302	10
303	1
304	4
305	6
306	7
307	10
308	1
309	7
310	3
311	6
312	6
313	1
314	8
315	3
316	6
317	3
318	10
319	2
320	5
321	9
322	8
323	2
324	4
325	3
326	9
327	7
328	2
329	10
330	3
331	8
332	7
333	9
334	8
335	2
336	2
337	3
338	4
339	2
340	1
341	1
342	9
343	10
344	3
345	4
346	3
347	9
348	5
349	6
350	5
351	5
352	3
353	7
354	6
355	6
356	9
357	1
358	4
359	7
360	4
361	3
362	1
363	1
364	6
365	5
366	4
367	6
368	2
369	1
370	7
371	6
372	4
373	10
374	7
375	4
376	3
377	5
378	7
379	6
380	9
381	3
382	6
383	7
384	8
385	2
386	7
387	7
388	3
389	9
390	8
391	3
392	7
393	10
394	4
395	9
396	8
397	10
398	3
399	4
400	5
401	1
402	8
403	3
404	2
405	6
406	10
407	1
408	1
409	8
410	2
411	4
412	1
413	4
414	5
415	10
416	2
417	6
418	2
419	8
420	8
421	1
422	4
423	9
424	2
425	6
426	4
427	5
428	5
429	6
430	5
431	9
432	5
433	7
434	10
435	7
436	8
437	2
438	10
439	3
440	8
441	4
442	1
443	7
444	5
445	4
446	4
447	6
448	10
449	3
450	4
451	2
452	7
453	9
454	2
455	6
456	3
457	1
458	5
459	3
460	8
461	7
462	4
463	5
464	3
465	2
466	5
467	9
468	4
469	10
470	1
471	3
472	6
473	7
474	7
475	7
476	2
477	4
478	6
479	9
480	2
481	3
482	5
483	2
484	3
485	5
486	7
487	8
488	2
489	9
490	8
491	3
492	2
493	4
494	2
495	2
496	2
497	7
498	6
499	3
500	2
501	3
502	3
503	4
504	9
505	8
506	1
507	6
508	4
509	6
510	3
511	10
512	1
513	1
514	8
515	9
516	8
517	2
518	10
519	6
520	2
521	2
522	6
523	10
524	7
525	10
526	2
527	5
528	6
529	5
530	5
531	1
532	7
533	2
534	10
535	8
536	9
537	1
538	6
539	8
540	5
541	4
542	9
543	2
544	1
545	7
546	6
547	6
548	4
549	3
550	4
551	4
552	5
553	3
554	2
555	4
556	7
557	8
558	6
559	5
560	5
561	8
562	4
563	6
564	8
565	2
566	4
567	7
568	8
569	7
570	6
571	4
572	7
573	10
574	4
575	8
576	3
577	6
578	1
579	5
580	5
581	9
582	2
583	3
584	3
585	3
586	8
587	10
588	4
589	10
590	6
591	4
592	3
593	10
594	7
595	9
596	10
597	4
598	9
599	5
600	8
601	10
602	1
603	7
604	3
605	6
606	3
607	9
608	10
609	9
610	5
611	10
612	2
613	4
614	6
615	7
616	10
617	6
618	7
619	9
620	1
621	8
622	6
623	7
624	2
625	3
626	6
627	4
628	5
629	10
630	5
631	3
632	3
633	2
634	6
635	9
636	4
637	5
638	7
639	10
640	4
641	9
642	1
643	3
644	8
645	10
646	8
647	7
648	7
649	4
650	10
651	3
652	9
653	6
654	7
655	4
656	4
657	8
658	3
659	2
660	5
661	4
662	6
663	3
664	5
665	4
666	2
667	4
668	3
669	9
670	9
DEPOT_SECTION
1
-1
EOF
